50
8840

508 804
253 249
633 179
403 990
11 860
226 995
265 947
941 483
362 435
834 431
917 758
252 481
210 75
38 910
679 385
536 307
390 131
161 598
704 542
782 783
333 458
279 274
631 849
785 995
415 379
306 234
551 675
972 830
864 118
473 264
700 68
229 315
679 537
651 673
957 730
577 440
420 694
612 113
110 806
418 212
722 438
416 394
468 78
798 115
625 947
31 686
52 829
108 39
564 662
460 740
